#SOLVERNAME# PAJ_Gurobi_MOSEK_msd
#SOLVER# Pajarito.PajaritoSolver(3, 3600.0, 1.0e-5, true, Gurobi.GurobiSolver(nothing, Any[(:OutputFlag, 1), (:Threads, 8), (:IntFeasTol, 1.0e-9), (:FeasibilityTol, 1.0e-8), (:MIPGap, 1.0e-5)]), Pajarito.UnsetSolver(), 0, false, true, Mosek.MosekSolver(Any[(:LOG, 0), (:NUM_THREADS, 8), (:MSK_DPAR_INTPNT_CO_TOL_REL_GAP, 1.0e-10), (:MSK_DPAR_INTPNT_CO_TOL_PFEAS, 1.0e-10), (:MSK_DPAR_INTPNT_CO_TOL_DFEAS, 1.0e-10), (:MSK_DPAR_INTPNT_CO_TOL_NEAR_REL, 1000.0)]), true, true, false, false, true, false, false, true, false, true, true, true, true, false, true, 10.0, true, false, false, true, 1.0e-12, 1.0e-8, false, "")
#INSTANCE# estein4_C.cbf.gz
#TIMELIMIT# 3600.0

Problem dimensions:
       variables |      67
     constraints |     108
   nonzeros in A |     128

Cones summary:
Cone             | Count   | Min dim.  | Max dim. 
    Second order |       9 |         3 |         3

Variable types:
      continuous |      58
         integer |       9

Transforming data...               0.00s

Creating conic subproblem...       0.00s

Building MIP model...              0.00s

Solving conic relaxation...        0.00s
 - Relaxation status    =        Optimal
 - Relaxation bound     =      -0.000000
Academic license - for non-commercial use only
Optimize a model with 216 rows, 85 columns and 434 nonzeros
Variable types: 76 continuous, 9 integer (0 binary)
Coefficient statistics:
  Matrix range     [8e-06, 8e+04]
  Objective range  [1e+00, 1e+00]
  Bounds range     [0e+00, 0e+00]
  RHS range        [2e-01, 1e+00]
Presolve removed 99 rows and 32 columns
Presolve time: 0.00s
Presolved: 117 rows, 53 columns, 367 nonzeros
Variable types: 49 continuous, 4 integer (4 binary)

Root relaxation: objective 0.000000e+00, 53 iterations, 0.00 seconds

    Nodes    |    Current Node    |     Objective Bounds      |     Work
 Expl Unexpl |  Obj  Depth IntInf | Incumbent    BestBd   Gap | It/Node Time

     0     0    0.00000    0    4          -    0.00000      -     -    0s
H    0     0                       1.1615545    0.00000   100%     -    0s
     0     0    0.30018    0    4    1.16155    0.30018  74.2%     -    0s
     0     0    0.32687    0    4    1.16155    0.32687  71.9%     -    0s
     0     0    0.32687    0    4    1.16155    0.32687  71.9%     -    0s
     0     0    0.32687    0    4    1.16155    0.32687  71.9%     -    0s
     0     2    0.32687    0    4    1.16155    0.32687  71.9%     -    0s
*   36     9               4       1.1615545    1.03738  10.7%  15.2    0s

Cutting planes:
  Gomory: 3
  MIR: 1
  Lazy constraints: 80

Explored 55 nodes (785 simplex iterations) in 0.06 seconds
Thread count was 8 (of 16 available processors)

Solution count 2: 1.16155 1.16155 

Solve interrupted
Best objective 1.161554540550e+00, best bound 1.072693688027e+00, gap 7.6502%

Starting MIP-solver-driven algorithm

MIP-solver-driven algorithm summary:
 - Status               =        Optimal
 - Best feasible        =  +1.072694e+00
 - Best bound           =  +1.072694e+00
 - Relative opt. gap    =      2.799e-11
 - Total time (s)       =       6.54e-02

Timers (s):
 - Setup                =   1.44e-03
 -- Transform data      =   8.66e-05
 -- Create conic data   =   1.06e-03
 -- Create MIP data     =   2.87e-04
 - Algorithm            =   6.40e-02
 -- Solve relaxation    =   4.63e-03
 -- Get relaxation cuts =   6.33e-05
 -- MIP solver driving  =   5.90e-02
 -- Solve subproblems   =   2.66e-02
 -- Get subproblem cuts =   1.26e-03
 -- Get separation cuts =   4.06e-04

Counters:
 - Lazy callbacks       =    29
 -- Integer repeats     =    19
 -- Conic subproblems   =    11
 --- Infeasible         =     0
 --- Optimal            =    11
 --- Suboptimal         =     0
 --- UserLimit          =     0
 --- ConicFailure       =     0
 --- Other status       =     0
 -- Feasible solutions  =    12
 --- From subproblems   =    11
 --- In lazy callback   =     1
 - Heuristic callbacks  =    46
 -- Solutions passed    =     2

Solution returned by conic solver

Rounds of full separation/subproblem cuts, and count of cuts added:
Cone             | Subp.  | Sep.   | Total  | Relax. | Viol. 
    Second order |    239 |     21 |     82 |     18 |     82

0 numerically unstable disaggregated SOC cuts

Distance to feasibility (negative indicates strict feasibility):
Cone             | Variable  | Constraint
          Linear |  0.00e+00 |  1.09e-10
    Second order | -3.16e-12 |        NA

Distance to integrality of integer/binary variables:
         integer |  0.00e+00

#STATUS# Optimal
#OBJVAL# 1.0726936880566815
#OBJBOUND# 1.0726936880266587
#NODECOUNT# 55
#TIMESOLVER# 0.06541013717651367
#TIMEALL# 0.06580996513366699
#SOLUTION# [0.7895649999841172,0.6555440000099754,0.6255293575672694,0.5279139400439586,0.33092273789833837,0.19238399999124428,0.26925499995991226,0.829975,0.3564196424969553,0.39688505992338824,2.3676519197070423e-11,1.2156335413578528e-11,-1.0819357201342152e-11,0.829975,0.16403564249928404,0.1276300599266469,0.829975,-0.1120649999864861,-0.5028650000047267,0.3788168526643071,0.05197064248791327,-0.37523493997538643,0.829975,-0.3077389999841173,-0.06923500000997541,0.155114918703669,-0.14370335756726943,0.05839505995604137,0.2078391787666907,0.16403564252552894,0.12763005996734636,0.33092273789833837,-0.0,2.3676505200853626e-11,-0.0,-0.0,0.3788168526643071,-0.0,0.155114918703669,0.20783917876669067,1.0,0.0,1.0,0.0,0.0,1.0,-0.0,1.0,1.0,0.0,1.0,0.0,1.0,1.0,0.0,1.0,0.0,0.0,0.49905226210166165,0.0,0.8299749999763235,0.0,0.0,0.4511581473356929,0.0,0.674860081296331,0.6221358212333093]
